NAME: map3_180
TYPE: TSP
COMMENT: autogenerated using a wonderful map creator
DIMENSION: 210
EDGE_WEIGHT_TYPE: EUC_2D
NODE_COORD_SECTION
1 34.0 126.0
2 35.0 126.0
3 36.0 126.0
4 37.0 126.0
5 38.0 126.0
6 2.0 39.0
7 2.0 38.0
8 88.0 2.0
9 87.0 2.0
10 86.0 2.0
11 85.0 2.0
12 84.0 2.0
13 126.0 75.0
14 126.0 74.0
15 126.0 73.0
16 39.0 126.0
17 40.0 126.0
18 41.0 126.0
19 42.0 126.0
20 43.0 126.0
21 2.0 37.0
22 2.0 36.0
23 2.0 35.0
24 83.0 2.0
25 82.0 2.0
26 81.0 2.0
27 80.0 2.0
28 79.0 2.0
29 126.0 72.0
30 126.0 71.0
31 34.0 127.0
32 35.0 127.0
33 36.0 127.0
34 37.0 127.0
35 38.0 127.0
36 1.0 39.0
37 1.0 38.0
38 88.0 1.0
39 87.0 1.0
40 86.0 1.0
41 85.0 1.0
42 84.0 1.0
43 127.0 75.0
44 127.0 74.0
45 127.0 73.0
46 39.0 127.0
47 40.0 127.0
48 41.0 127.0
49 42.0 127.0
50 43.0 127.0
51 1.0 37.0
52 1.0 36.0
53 1.0 35.0
54 83.0 1.0
55 82.0 1.0
56 81.0 1.0
57 80.0 1.0
58 79.0 1.0
59 127.0 72.0
60 127.0 71.0
61 59.0 64.0
62 73.0 90.0
63 16.0 102.0
64 73.0 108.0
65 79.0 124.0
66 45.0 101.0
67 6.0 2.0
68 70.0 39.0
69 31.0 65.0
70 40.0 13.0
71 87.0 119.0
72 114.0 17.0
73 72.0 75.0
74 52.0 106.0
75 93.0 52.0
76 64.0 16.0
77 24.0 44.0
78 109.0 15.0
79 10.0 109.0
80 56.0 21.0
81 28.0 69.0
82 39.0 99.0
83 108.0 68.0
84 51.0 9.0
85 121.0 126.0
86 97.0 122.0
87 118.0 35.0
88 4.0 59.0
89 93.0 45.0
90 54.0 8.0
91 53.0 73.0
92 61.0 120.0
93 120.0 17.0
94 60.0 5.0
95 8.0 68.0
96 58.0 17.0
97 51.0 75.0
98 35.0 12.0
99 7.0 115.0
100 18.0 5.0
101 105.0 113.0
102 125.0 61.0
103 68.0 36.0
104 71.0 35.0
105 120.0 83.0
106 41.0 12.0
107 21.0 52.0
108 115.0 4.0
109 125.0 100.0
110 49.0 14.0
111 91.0 107.0
112 47.0 52.0
113 42.0 102.0
114 101.0 105.0
115 119.0 86.0
116 91.0 15.0
117 73.0 98.0
118 57.0 47.0
119 117.0 98.0
120 8.0 63.0
121 87.0 36.0
122 84.0 49.0
123 123.0 65.0
124 97.0 46.0
125 99.0 74.0
126 19.0 29.0
127 63.0 81.0
128 75.0 46.0
129 14.0 5.0
130 83.0 59.0
131 112.0 95.0
132 37.0 80.0
133 81.0 43.0
134 72.0 40.0
135 115.0 45.0
136 106.0 106.0
137 44.0 67.0
138 13.0 64.0
139 116.0 83.0
140 16.0 124.0
141 99.0 76.0
142 56.0 105.0
143 28.0 34.0
144 1.0 80.0
145 47.0 102.0
146 42.0 33.0
147 53.0 8.0
148 92.0 46.0
149 17.0 107.0
150 32.0 98.0
151 63.0 83.0
152 51.0 111.0
153 38.0 29.0
154 114.0 30.0
155 60.0 4.0
156 60.0 68.0
157 5.0 77.0
158 98.0 61.0
159 50.0 76.0
160 62.0 105.0
161 67.0 46.0
162 29.0 1.0
163 25.0 83.0
164 54.0 64.0
165 56.0 61.0
166 17.0 45.0
167 114.0 78.0
168 10.0 103.0
169 56.0 70.0
170 103.0 87.0
171 76.0 112.0
172 13.0 41.0
173 4.0 17.0
174 23.0 30.0
175 113.0 52.0
176 25.0 3.0
177 65.0 69.0
178 113.0 70.0
179 65.0 14.0
180 119.0 49.0
181 53.0 58.0
182 8.0 90.0
183 48.0 71.0
184 116.0 105.0
185 39.0 13.0
186 12.0 105.0
187 100.0 118.0
188 91.0 115.0
189 68.0 28.0
190 125.0 53.0
191 60.0 109.0
192 38.0 24.0
193 115.0 24.0
194 87.0 81.0
195 64.0 24.0
196 18.0 91.0
197 4.0 74.0
198 107.0 13.0
199 18.0 54.0
200 123.0 12.0
201 29.0 60.0
202 75.0 100.0
203 67.0 62.0
204 43.0 49.0
205 53.0 17.0
206 125.0 12.0
207 34.0 22.0
208 125.0 30.0
209 47.0 92.0
210 18.0 56.0
211 90.0 127.0
212 114.0 121.0
213 60.0 31.0
214 25.0 80.0
215 85.0 85.0
216 12.0 46.0
217 3.0 61.0
218 112.0 96.0
219 118.0 45.0
220 103.0 93.0
221 39.0 93.0
222 17.0 17.0
223 20.0 34.0
224 118.0 81.0
225 11.0 74.0
226 17.0 90.0
227 116.0 93.0
228 117.0 3.0
229 34.0 115.0
230 49.0 76.0
231 21.0 124.0
232 98.0 99.0
233 61.0 59.0
234 84.0 91.0
235 88.0 107.0
236 16.0 109.0
237 32.0 74.0
238 92.0 40.0
239 83.0 37.0
240 115.0 69.0
START_DEPOT_SECTION
1
2
3
4
5
6
7
8
9
10
11
12
13
14
15
16
17
18
19
20
21
22
23
24
25
26
27
28
29
30
-1
END_DEPOT_SECTION
31
32
33
34
35
36
37
38
39
40
41
42
43
44
45
46
47
48
49
50
51
52
53
54
55
56
57
58
59
60
-1
EOF
